0 82 34 42 43 80 18 96 20 41 68 
82 0 53 28 2 1 65 87 83 36 90 
34 53 0 40 8 42 72 2 50 99 45 
42 28 40 0 37 55 7 34 40 81 10 
43 2 8 37 0 65 57 94 61 43 64 
80 1 42 55 65 0 40 85 86 9 38 
18 65 72 7 57 40 0 91 20 76 27 
96 87 2 34 94 85 91 0 51 92 51 
20 83 50 40 61 86 20 51 0 80 55 
41 36 99 81 43 9 76 92 80 0 35 
68 90 45 10 64 38 27 51 55 35 0 
